TCS_Benchmarks/redos_fix/regexlib1_output_distinct_3226_3225_4_0.txt
[1-9]{1}
[0-9]{0,7}